# Objective value = 2.1781499999999996e+03
I_0_0 1540
I_0_1 1895
I_0_2 1.6469999999999995e+03
I_0_3 2287
I_1_0 67
I_1_1 0
I_1_2 67
I_1_3 0
I_2_0 96
I_2_1 0
I_2_2 96
I_2_3 0
I_3_0 78
I_3_1 39
I_3_2 78
I_3_3 3.9000000000000156e+01
I_4_0 89
I_4_1 89
I_4_2 89
I_4_3 0
I_5_0 89
I_5_1 89
I_5_2 89
I_5_3 0
I_6_0 154
I_6_1 1.5399999999999989e+02
I_6_2 7.7000000000000142e+01
I_6_3 1.3500311979441904e-13
I_7_0 166
I_7_1 83
I_7_2 166
I_7_3 8.2999999999999986e+01
I_8_0 39
I_8_1 0
I_8_2 39
I_8_3 0
I_9_0 62
I_9_1 31
I_9_2 62
I_9_3 31
I_10_0 60
I_10_1 60
I_10_2 30
I_10_3 0
q_1_0 0
q_1_1 134
q_1_2 0
q_2_0 0
q_2_1 192
q_2_2 0
q_3_0 0
q_3_1 78
q_3_2 1.5631940186722204e-13
q_4_0 89
q_4_1 89
q_4_2 0
q_5_0 89
q_5_1 89
q_5_2 0
q_6_0 7.6999999999999872e+01
q_6_1 2.7000623958883807e-13
q_6_2 0
q_7_0 0
q_7_1 166
q_7_2 0
q_8_0 0
q_8_1 78
q_8_2 0
q_9_0 0
q_9_1 62
q_9_2 0
q_10_0 30
q_10_1 -3.5527136788005009e-15
q_10_2 0
y_0_0 1
y_0_1 1
y_0_2 0
y_1_0 0
y_1_1 1
y_1_2 0
y_2_0 0
y_2_1 1
y_2_2 0
y_3_0 0
y_3_1 1
y_3_2 0
y_4_0 1
y_4_1 1
y_4_2 0
y_5_0 1
y_5_1 1
y_5_2 0
y_6_0 9.9999999999999833e-01
y_6_1 1.7763568394002505e-15
y_6_2 0
y_7_0 0
y_7_1 1
y_7_2 0
y_8_0 0
y_8_1 1
y_8_2 0
y_9_0 0
y_9_1 1
y_9_2 0
y_10_0 1
y_10_1 0
y_10_2 0
x_0_1_0 0
x_0_1_1 0
x_0_1_2 0
x_0_2_0 0
x_0_2_1 0
x_0_2_2 0
x_0_3_0 0
x_0_3_1 0
x_0_3_2 0
x_0_4_0 0
x_0_4_1 9.9999999999999811e-01
x_0_4_2 0
x_0_5_0 9.9999999999999778e-01
x_0_5_1 1.0000000000000002e+00
x_0_5_2 0
x_0_6_0 0
x_0_6_1 0
x_0_6_2 0
x_0_7_0 0
x_0_7_1 0
x_0_7_2 0
x_0_8_0 0
x_0_8_1 1.7763568394002505e-15
x_0_8_2 0
x_0_9_0 0
x_0_9_1 0
x_0_9_2 0
x_0_10_0 1.0000000000000022e+00
x_0_10_1 0
x_0_10_2 0
x_1_2_0 0
x_1_2_1 0
x_1_2_2 0
x_1_3_0 0
x_1_3_1 1.0000000000000002e+00
x_1_3_2 0
x_1_4_0 0
x_1_4_1 0
x_1_4_2 0
x_1_5_0 0
x_1_5_1 0
x_1_5_2 0
x_1_6_0 0
x_1_6_1 0
x_1_6_2 0
x_1_7_0 0
x_1_7_1 1
x_1_7_2 0
x_1_8_0 0
x_1_8_1 0
x_1_8_2 0
x_1_9_0 0
x_1_9_1 0
x_1_9_2 0
x_1_10_0 0
x_1_10_1 0
x_1_10_2 0
x_2_3_0 0
x_2_3_1 -1.6653345369377348e-15
x_2_3_2 0
x_2_4_0 0
x_2_4_1 9.9999999999999978e-01
x_2_4_2 0
x_2_5_0 0
x_2_5_1 0
x_2_5_2 0
x_2_6_0 0
x_2_6_1 3.3306690738754696e-16
x_2_6_2 0
x_2_7_0 0
x_2_7_1 0
x_2_7_2 0
x_2_8_0 0
x_2_8_1 0
x_2_8_2 0
x_2_9_0 0
x_2_9_1 9.9999999999999978e-01
x_2_9_2 0
x_2_10_0 0
x_2_10_1 0
x_2_10_2 0
x_3_4_0 0
x_3_4_1 0
x_3_4_2 0
x_3_5_0 0
x_3_5_1 0
x_3_5_2 0
x_3_6_0 0
x_3_6_1 0
x_3_6_2 0
x_3_7_0 0
x_3_7_1 0
x_3_7_2 0
x_3_8_0 0
x_3_8_1 0
x_3_8_2 0
x_3_9_0 0
x_3_9_1 1.0000000000000018e+00
x_3_9_2 0
x_3_10_0 0
x_3_10_1 0
x_3_10_2 0
x_4_5_0 0
x_4_5_1 0
x_4_5_2 0
x_4_6_0 1
x_4_6_1 1.6653345369377348e-15
x_4_6_2 0
x_4_7_0 0
x_4_7_1 0
x_4_7_2 0
x_4_8_0 0
x_4_8_1 0
x_4_8_2 0
x_4_9_0 0
x_4_9_1 0
x_4_9_2 0
x_4_10_0 1
x_4_10_1 0
x_4_10_2 0
x_5_6_0 9.9999999999999967e-01
x_5_6_1 1.7208456881689926e-15
x_5_6_2 0
x_5_7_0 0
x_5_7_1 0
x_5_7_2 0
x_5_8_0 0
x_5_8_1 9.9999999999999822e-01
x_5_8_2 0
x_5_9_0 0
x_5_9_1 0
x_5_9_2 0
x_5_10_0 1.9984014443252818e-15
x_5_10_1 0
x_5_10_2 0
x_6_7_0 0
x_6_7_1 0
x_6_7_2 0
x_6_8_0 0
x_6_8_1 0
x_6_8_2 0
x_6_9_0 0
x_6_9_1 0
x_6_9_2 0
x_6_10_0 -4.2188474935755949e-15
x_6_10_1 0
x_6_10_2 0
x_7_8_0 0
x_7_8_1 1
x_7_8_2 0
x_7_9_0 0
x_7_9_1 0
x_7_9_2 0
x_7_10_0 0
x_7_10_1 0
x_7_10_2 0
x_8_9_0 0
x_8_9_1 0
x_8_9_2 0
x_8_10_0 0
x_8_10_1 0
x_8_10_2 0
x_9_10_0 0
x_9_10_1 0
x_9_10_2 0
